(set-option :auto-config false)
(set-option :produce-unsat-cores false)
(set-option :smt.mbqi.max_iterations 10000000)
(set-option :smt.relevancy 0)
(declare-fun c2 ((_ BitVec 64) (_ BitVec 64)) Bool)
(define-fun e3 ((c0 (_ BitVec 64)) (c1 (_ BitVec 64))) Bool (c2 c0 c1))
(define-fun e4 ((c0 (_ BitVec 64)) (c1 (_ BitVec 64))) Bool (not (e3 c0 c1)))
(define-fun e5 ((c0 (_ BitVec 64)) (c1 (_ BitVec 64))) (_ BitVec 64) (_ bv0 64))
(declare-fun c6 ((_ BitVec 64) (_ BitVec 64)) (_ BitVec 64))
(define-fun e7 ((c0 (_ BitVec 64)) (c1 (_ BitVec 64))) (_ BitVec 64) (c6 c0 c1))
(define-fun e8 ((c0 (_ BitVec 64)) (c1 (_ BitVec 64))) Bool (= (e5 c0 c1) (e7 c0 c1)))
(define-fun e9 ((c0 (_ BitVec 64)) (c1 (_ BitVec 64))) Bool (and (e4 c0 c1) (e8 c0 c1)))
(define-fun e10 ((c0 (_ BitVec 64)) (c1 (_ BitVec 64))) (_ BitVec 64) (_ bv1024 64))
(define-fun e11 ((c0 (_ BitVec 64)) (c1 (_ BitVec 64))) Bool (bvult c0 (e10 c0 c1)))
(define-fun e12 ((c0 (_ BitVec 64)) (c1 (_ BitVec 64))) (_ BitVec 64) (_ bv512 64))
(define-fun e13 ((c0 (_ BitVec 64)) (c1 (_ BitVec 64))) Bool (bvult c1 (e12 c0 c1)))
(define-fun e14 ((c0 (_ BitVec 64)) (c1 (_ BitVec 64))) (_ BitVec 64) (_ bv3 64))
(declare-fun c15 ((_ BitVec 64)) (_ BitVec 64))
(define-fun e16 ((c0 (_ BitVec 64)) (c1 (_ BitVec 64))) (_ BitVec 64) (c15 c0))
(define-fun e17 ((c0 (_ BitVec 64)) (c1 (_ BitVec 64))) Bool (= (e14 c0 c1) (e16 c0 c1)))
(define-fun e18 ((c0 (_ BitVec 64)) (c1 (_ BitVec 64))) Bool (and (e11 c0 c1) (e17 c0 c1)))
(define-fun e19 ((c0 (_ BitVec 64)) (c1 (_ BitVec 64))) Bool (not (e18 c0 c1)))
(define-fun e20 ((c0 (_ BitVec 64)) (c1 (_ BitVec 64))) (_ BitVec 64) (_ bv4 64))
(define-fun e21 ((c0 (_ BitVec 64)) (c1 (_ BitVec 64))) Bool (= (e20 c0 c1) (e16 c0 c1)))
(define-fun e22 ((c0 (_ BitVec 64)) (c1 (_ BitVec 64))) Bool (and (e11 c0 c1) (e21 c0 c1)))
(define-fun e23 ((c0 (_ BitVec 64)) (c1 (_ BitVec 64))) Bool (not (e22 c0 c1)))
(define-fun e24 ((c0 (_ BitVec 64)) (c1 (_ BitVec 64))) (_ BitVec 64) (_ bv5 64))
(define-fun e25 ((c0 (_ BitVec 64)) (c1 (_ BitVec 64))) Bool (= (e24 c0 c1) (e16 c0 c1)))
(define-fun e26 ((c0 (_ BitVec 64)) (c1 (_ BitVec 64))) Bool (and (e11 c0 c1) (e25 c0 c1)))
(define-fun e27 ((c0 (_ BitVec 64)) (c1 (_ BitVec 64))) Bool (not (e26 c0 c1)))
(define-fun e28 ((c0 (_ BitVec 64)) (c1 (_ BitVec 64))) Bool (and (e11 c0 c1) (e13 c0 c1) (e19 c0 c1) (e23 c0 c1) (e27 c0 c1)))
(define-fun e29 ((c0 (_ BitVec 64)) (c1 (_ BitVec 64))) Bool (not (e28 c0 c1)))
(define-fun e30 ((c0 (_ BitVec 64)) (c1 (_ BitVec 64))) Bool (or (e9 c0 c1) (e29 c0 c1)))
(define-fun e31 () Bool (forall ((c0 (_ BitVec 64)) (c1 (_ BitVec 64))) (e30 c0 c1)))
(declare-fun c32 () (_ BitVec 64))
(define-fun e33 () (_ BitVec 64) (_ bv1024 64))
(define-fun e34 () Bool (bvult c32 e33))
(define-fun e35 () (_ BitVec 64) (_ bv2 64))
(define-fun e36 () (_ BitVec 64) (c15 c32))
(define-fun e37 () Bool (= e35 e36))
(define-fun e38 () Bool (and e34 e37))
(declare-fun c39 () Bool)
(define-fun e40 () Bool (not c39))
(define-fun e41 () Bool (or e38 e40))
(declare-fun c42 ((_ BitVec 64) (_ BitVec 64)) (_ BitVec 64))
(define-fun e43 ((c0 (_ BitVec 64))) (_ BitVec 64) (_ bv0 64))
(define-fun e44 ((c0 (_ BitVec 64))) (_ BitVec 64) (c42 c0 (e43 c0)))
(define-fun e45 ((c0 (_ BitVec 64))) (_ BitVec 64) (_ bv1024 64))
(define-fun e46 ((c0 (_ BitVec 64))) Bool (bvult (e44 c0) (e45 c0)))
(define-fun e47 ((c0 (_ BitVec 64))) (_ BitVec 64) (_ bv3 64))
(define-fun e48 ((c0 (_ BitVec 64))) (_ BitVec 64) (c15 (e44 c0)))
(define-fun e49 ((c0 (_ BitVec 64))) Bool (= (e47 c0) (e48 c0)))
(define-fun e50 ((c0 (_ BitVec 64))) Bool (and (e46 c0) (e49 c0)))
(declare-fun c51 ((_ BitVec 64)) (_ BitVec 64))
(define-fun e52 ((c0 (_ BitVec 64))) (_ BitVec 64) (c51 (e44 c0)))
(define-fun e53 ((c0 (_ BitVec 64))) Bool (= c0 (e52 c0)))
(define-fun e54 ((c0 (_ BitVec 64))) Bool (and (e50 c0) (e53 c0)))
(define-fun e55 ((c0 (_ BitVec 64))) Bool (bvult c0 (e45 c0)))
(define-fun e56 ((c0 (_ BitVec 64))) (_ BitVec 64) (_ bv1 64))
(define-fun e57 ((c0 (_ BitVec 64))) (_ BitVec 64) (c15 c0))
(define-fun e58 ((c0 (_ BitVec 64))) Bool (= (e56 c0) (e57 c0)))
(define-fun e59 ((c0 (_ BitVec 64))) Bool (and (e55 c0) (e58 c0)))
(define-fun e60 ((c0 (_ BitVec 64))) (_ BitVec 64) (_ bv2 64))
(define-fun e61 ((c0 (_ BitVec 64))) (_ BitVec 64) (c42 c0 (e60 c0)))
(define-fun e62 ((c0 (_ BitVec 64))) Bool (= (e60 c0) (e61 c0)))
(define-fun e63 ((c0 (_ BitVec 64))) Bool (not (e62 c0)))
(define-fun e64 ((c0 (_ BitVec 64))) Bool (and (e59 c0) (e63 c0)))
(define-fun e65 ((c0 (_ BitVec 64))) Bool (not (e64 c0)))
(define-fun e66 ((c0 (_ BitVec 64))) Bool (or (e54 c0) (e65 c0)))
(define-fun e67 () Bool (forall ((c0 (_ BitVec 64))) (e66 c0)))
(define-fun e68 ((c0 (_ BitVec 64)) (c1 (_ BitVec 64))) (_ BitVec 64) (c42 c0 c1))
(define-fun e69 ((c0 (_ BitVec 64)) (c1 (_ BitVec 64))) (_ BitVec 64) (_ bv1 64))
(define-fun e70 ((c0 (_ BitVec 64)) (c1 (_ BitVec 64))) (_ BitVec 64) (_ bv524314 64))
(define-fun e71 ((c0 (_ BitVec 64)) (c1 (_ BitVec 64))) (_ BitVec 64) (bvadd (e70 c0 c1) (e7 c0 c1)))
(define-fun e72 ((c0 (_ BitVec 64)) (c1 (_ BitVec 64))) (_ BitVec 64) (_ bv10 64))
(define-fun e73 ((c0 (_ BitVec 64)) (c1 (_ BitVec 64))) (_ BitVec 64) (bvshl (e71 c0 c1) (e72 c0 c1)))
(define-fun e74 ((c0 (_ BitVec 64)) (c1 (_ BitVec 64))) (_ BitVec 64) (bvor (e69 c0 c1) (e73 c0 c1)))
(define-fun e75 ((c0 (_ BitVec 64)) (c1 (_ BitVec 64))) (_ BitVec 64) (ite (e3 c0 c1) (e74 c0 c1) (e5 c0 c1)))
(define-fun e76 ((c0 (_ BitVec 64)) (c1 (_ BitVec 64))) Bool (= (e68 c0 c1) (e75 c0 c1)))
(define-fun e77 ((c0 (_ BitVec 64)) (c1 (_ BitVec 64))) (_ BitVec 64) (c51 c0))
(define-fun e78 ((c0 (_ BitVec 64)) (c1 (_ BitVec 64))) Bool (bvult (e77 c0 c1) (e10 c0 c1)))
(define-fun e79 ((c0 (_ BitVec 64)) (c1 (_ BitVec 64))) (_ BitVec 64) (c15 (e77 c0 c1)))
(define-fun e80 ((c0 (_ BitVec 64)) (c1 (_ BitVec 64))) Bool (= (e69 c0 c1) (e79 c0 c1)))
(define-fun e81 ((c0 (_ BitVec 64)) (c1 (_ BitVec 64))) Bool (and (e78 c0 c1) (e80 c0 c1)))
(define-fun e82 ((c0 (_ BitVec 64)) (c1 (_ BitVec 64))) (_ BitVec 64) (_ bv2 64))
(define-fun e83 ((c0 (_ BitVec 64)) (c1 (_ BitVec 64))) (_ BitVec 64) (c42 (e77 c0 c1) (e82 c0 c1)))
(define-fun e84 ((c0 (_ BitVec 64)) (c1 (_ BitVec 64))) Bool (= (e82 c0 c1) (e83 c0 c1)))
(define-fun e85 ((c0 (_ BitVec 64)) (c1 (_ BitVec 64))) Bool (not (e84 c0 c1)))
(define-fun e86 ((c0 (_ BitVec 64)) (c1 (_ BitVec 64))) Bool (and (e11 c0 c1) (e13 c0 c1) (e81 c0 c1) (e85 c0 c1)))
(define-fun e87 ((c0 (_ BitVec 64)) (c1 (_ BitVec 64))) Bool (or (e18 c0 c1) (e22 c0 c1)))
(define-fun e88 ((c0 (_ BitVec 64)) (c1 (_ BitVec 64))) Bool (and (e86 c0 c1) (e87 c0 c1)))
(define-fun e89 ((c0 (_ BitVec 64)) (c1 (_ BitVec 64))) Bool (not (e88 c0 c1)))
(define-fun e90 ((c0 (_ BitVec 64)) (c1 (_ BitVec 64))) Bool (or (e76 c0 c1) (e89 c0 c1)))
(define-fun e91 () Bool (forall ((c0 (_ BitVec 64)) (c1 (_ BitVec 64))) (e90 c0 c1)))
(declare-fun c92 ((_ BitVec 64) (_ BitVec 64)) Bool)
(define-fun e93 ((c0 (_ BitVec 64)) (c1 (_ BitVec 64))) Bool (c92 c0 c1))
(define-fun e94 ((c0 (_ BitVec 64)) (c1 (_ BitVec 64))) (_ BitVec 64) (_ bv193 64))
(define-fun e95 ((c0 (_ BitVec 64)) (c1 (_ BitVec 64))) (_ BitVec 64) (_ bv14 64))
(declare-fun c96 ((_ BitVec 64) (_ BitVec 64)) (_ BitVec 64))
(define-fun e97 ((c0 (_ BitVec 64)) (c1 (_ BitVec 64))) (_ BitVec 64) (c96 c0 c1))
(define-fun e98 ((c0 (_ BitVec 64)) (c1 (_ BitVec 64))) (_ BitVec 64) (bvand (e95 c0 c1) (e97 c0 c1)))
(define-fun e99 ((c0 (_ BitVec 64)) (c1 (_ BitVec 64))) (_ BitVec 64) (bvor (e94 c0 c1) (e98 c0 c1)))
(define-fun e100 ((c0 (_ BitVec 64)) (c1 (_ BitVec 64))) (_ BitVec 64) (bvor (e73 c0 c1) (e99 c0 c1)))
(define-fun e101 ((c0 (_ BitVec 64)) (c1 (_ BitVec 64))) (_ BitVec 64) (_ bv525824 64))
(define-fun e102 ((c0 (_ BitVec 64)) (c1 (_ BitVec 64))) (_ BitVec 64) (bvadd (e101 c0 c1) (e7 c0 c1)))
(define-fun e103 ((c0 (_ BitVec 64)) (c1 (_ BitVec 64))) (_ BitVec 64) (bvshl (e102 c0 c1) (e72 c0 c1)))
(define-fun e104 ((c0 (_ BitVec 64)) (c1 (_ BitVec 64))) (_ BitVec 64) (bvor (e99 c0 c1) (e103 c0 c1)))
(define-fun e105 ((c0 (_ BitVec 64)) (c1 (_ BitVec 64))) (_ BitVec 64) (ite (e93 c0 c1) (e100 c0 c1) (e104 c0 c1)))
(define-fun e106 ((c0 (_ BitVec 64)) (c1 (_ BitVec 64))) (_ BitVec 64) (ite (e3 c0 c1) (e105 c0 c1) (e5 c0 c1)))
(define-fun e107 ((c0 (_ BitVec 64)) (c1 (_ BitVec 64))) Bool (= (e68 c0 c1) (e106 c0 c1)))
(define-fun e108 ((c0 (_ BitVec 64)) (c1 (_ BitVec 64))) Bool (and (e86 c0 c1) (e26 c0 c1)))
(define-fun e109 ((c0 (_ BitVec 64)) (c1 (_ BitVec 64))) Bool (not (e108 c0 c1)))
(define-fun e110 ((c0 (_ BitVec 64)) (c1 (_ BitVec 64))) Bool (or (e107 c0 c1) (e109 c0 c1)))
(define-fun e111 () Bool (forall ((c0 (_ BitVec 64)) (c1 (_ BitVec 64))) (e110 c0 c1)))
(define-fun e112 ((c0 (_ BitVec 64)) (c1 (_ BitVec 64))) Bool (bvult (e7 c0 c1) (e10 c0 c1)))
(define-fun e113 ((c0 (_ BitVec 64)) (c1 (_ BitVec 64))) (_ BitVec 64) (c15 (e7 c0 c1)))
(define-fun e114 ((c0 (_ BitVec 64)) (c1 (_ BitVec 64))) Bool (= (e20 c0 c1) (e113 c0 c1)))
(define-fun e115 ((c0 (_ BitVec 64)) (c1 (_ BitVec 64))) Bool (and (e112 c0 c1) (e114 c0 c1)))
(define-fun e116 ((c0 (_ BitVec 64)) (c1 (_ BitVec 64))) (_ BitVec 64) (c51 (e7 c0 c1)))
(define-fun e117 ((c0 (_ BitVec 64)) (c1 (_ BitVec 64))) Bool (= (e77 c0 c1) (e116 c0 c1)))
(define-fun e118 ((c0 (_ BitVec 64)) (c1 (_ BitVec 64))) Bool (and (e115 c0 c1) (e117 c0 c1)))
(define-fun e119 ((c0 (_ BitVec 64)) (c1 (_ BitVec 64))) Bool (and (e86 c0 c1) (e18 c0 c1) (e3 c0 c1)))
(define-fun e120 ((c0 (_ BitVec 64)) (c1 (_ BitVec 64))) Bool (not (e119 c0 c1)))
(define-fun e121 ((c0 (_ BitVec 64)) (c1 (_ BitVec 64))) Bool (or (e118 c0 c1) (e120 c0 c1)))
(define-fun e122 () Bool (forall ((c0 (_ BitVec 64)) (c1 (_ BitVec 64))) (e121 c0 c1)))
(define-fun e123 ((c0 (_ BitVec 64)) (c1 (_ BitVec 64))) Bool (= (e24 c0 c1) (e113 c0 c1)))
(define-fun e124 ((c0 (_ BitVec 64)) (c1 (_ BitVec 64))) Bool (and (e112 c0 c1) (e123 c0 c1)))
(define-fun e125 ((c0 (_ BitVec 64)) (c1 (_ BitVec 64))) Bool (and (e117 c0 c1) (e124 c0 c1)))
(define-fun e126 ((c0 (_ BitVec 64)) (c1 (_ BitVec 64))) Bool (and (e86 c0 c1) (e22 c0 c1) (e3 c0 c1)))
(define-fun e127 ((c0 (_ BitVec 64)) (c1 (_ BitVec 64))) Bool (not (e126 c0 c1)))
(define-fun e128 ((c0 (_ BitVec 64)) (c1 (_ BitVec 64))) Bool (or (e125 c0 c1) (e127 c0 c1)))
(define-fun e129 () Bool (forall ((c0 (_ BitVec 64)) (c1 (_ BitVec 64))) (e128 c0 c1)))
(define-fun e130 ((c0 (_ BitVec 64)) (c1 (_ BitVec 64))) (_ BitVec 64) (_ bv6 64))
(define-fun e131 ((c0 (_ BitVec 64)) (c1 (_ BitVec 64))) Bool (= (e130 c0 c1) (e113 c0 c1)))
(define-fun e132 ((c0 (_ BitVec 64)) (c1 (_ BitVec 64))) Bool (and (e112 c0 c1) (e131 c0 c1)))
(define-fun e133 ((c0 (_ BitVec 64)) (c1 (_ BitVec 64))) Bool (and (e117 c0 c1) (e132 c0 c1)))
(define-fun e134 ((c0 (_ BitVec 64)) (c1 (_ BitVec 64))) Bool (and (e86 c0 c1) (e3 c0 c1) (e26 c0 c1) (e93 c0 c1)))
(define-fun e135 ((c0 (_ BitVec 64)) (c1 (_ BitVec 64))) Bool (not (e134 c0 c1)))
(define-fun e136 ((c0 (_ BitVec 64)) (c1 (_ BitVec 64))) Bool (or (e133 c0 c1) (e135 c0 c1)))
(define-fun e137 () Bool (forall ((c0 (_ BitVec 64)) (c1 (_ BitVec 64))) (e136 c0 c1)))
(define-fun e138 ((c0 (_ BitVec 64)) (c1 (_ BitVec 64))) (_ BitVec 64) (_ bv256 64))
(define-fun e139 ((c0 (_ BitVec 64)) (c1 (_ BitVec 64))) Bool (bvult (e7 c0 c1) (e138 c0 c1)))
(define-fun e140 ((c0 (_ BitVec 64)) (c1 (_ BitVec 64))) Bool (not (e93 c0 c1)))
(define-fun e141 ((c0 (_ BitVec 64)) (c1 (_ BitVec 64))) Bool (and (e86 c0 c1) (e3 c0 c1) (e26 c0 c1) (e140 c0 c1)))
(define-fun e142 ((c0 (_ BitVec 64)) (c1 (_ BitVec 64))) Bool (not (e141 c0 c1)))
(define-fun e143 ((c0 (_ BitVec 64)) (c1 (_ BitVec 64))) Bool (or (e139 c0 c1) (e142 c0 c1)))
(define-fun e144 () Bool (forall ((c0 (_ BitVec 64)) (c1 (_ BitVec 64))) (e143 c0 c1)))
(define-fun e145 ((c0 (_ BitVec 64)) (c1 (_ BitVec 64))) Bool (= (e5 c0 c1) (e97 c0 c1)))
(define-fun e146 ((c0 (_ BitVec 64)) (c1 (_ BitVec 64))) Bool (and (e140 c0 c1) (e145 c0 c1)))
(define-fun e147 ((c0 (_ BitVec 64)) (c1 (_ BitVec 64))) Bool (and (e11 c0 c1) (e13 c0 c1) (e27 c0 c1)))
(define-fun e148 ((c0 (_ BitVec 64)) (c1 (_ BitVec 64))) Bool (not (e147 c0 c1)))
(define-fun e149 ((c0 (_ BitVec 64)) (c1 (_ BitVec 64))) Bool (or (e146 c0 c1) (e148 c0 c1)))
(define-fun e150 () Bool (forall ((c0 (_ BitVec 64)) (c1 (_ BitVec 64))) (e149 c0 c1)))
(define-fun e151 () Bool (and e41 e67 e91 e111 e122 e129 e137 e144 e31 e150))
(define-fun e153 ((c152 (_ BitVec 64))) (_ BitVec 64) (c51 c152))
(define-fun e154 ((c152 (_ BitVec 64))) (_ BitVec 64) (_ bv1024 64))
(define-fun e155 ((c152 (_ BitVec 64))) Bool (bvult (e153 c152) (e154 c152)))
(define-fun e156 ((c152 (_ BitVec 64))) (_ BitVec 64) (_ bv1 64))
(define-fun e157 ((c152 (_ BitVec 64))) (_ BitVec 64) (c15 (e153 c152)))
(define-fun e158 ((c152 (_ BitVec 64))) Bool (= (e156 c152) (e157 c152)))
(define-fun e159 ((c152 (_ BitVec 64))) Bool (and (e155 c152) (e158 c152)))
(define-fun e160 ((c152 (_ BitVec 64))) Bool (bvult c152 (e154 c152)))
(define-fun e161 ((c152 (_ BitVec 64))) (_ BitVec 64) (_ bv0 64))
(define-fun e162 ((c152 (_ BitVec 64))) (_ BitVec 64) (c15 c152))
(define-fun e163 ((c152 (_ BitVec 64))) Bool (= (e161 c152) (e162 c152)))
(define-fun e164 ((c152 (_ BitVec 64))) Bool (not (e163 c152)))
(define-fun e165 ((c152 (_ BitVec 64))) Bool (and (e160 c152) (e164 c152)))
(define-fun e166 ((c152 (_ BitVec 64))) Bool (not (e165 c152)))
(define-fun e167 ((c152 (_ BitVec 64))) Bool (or (e159 c152) (e166 c152)))
(define-fun e168 () Bool (forall ((c152 (_ BitVec 64))) (e167 c152)))
(define-fun e169 () Bool (and e151 e168))
(define-fun e170 () Bool (not e169))
(define-fun e171 () Bool (or e31 e170))
(define-fun e172 () Bool (not e171))
(assert e172)
(check-sat)
